\ENCODING=ISO-8859-1
\Problem name: resolve second problem

Minimize
 obj:
Subject To
 c1:  - u_1 + a_0 >= 0
 c2:  - u_2 + a_1 >= 0
 c3:  - u_3 + a_2 >= 0
 c4:  - u_4 + a_3 >= 0
 c5:  - u_5 + a_4 >= 0
 c6:  - u_6 + a_5 >= 0
 c7:  - u_7 + a_6 >= 0
 c8:  - u_8 + a_7 >= 0
 c9:  - u_0 - u_9 + a_8 >= 0
 c10: - u_10 + a_9 >= 0
 c11: - 19 u_1 - 6 u_2 - 14 u_3 - 17 u_4 + 10 u_5 - 8 u_6 - 15 u_7 + 15 u_8
      + 2 u_9 - 6 u_10 + a_10 >= 0
 c12: 16 u_1 + 16 u_2 + 10 u_3 + 10 u_4 + 16 u_5 - 11 u_6 + 12 u_7 - 20 u_8
      - 4 u_9 - 6 u_10 + a_11 >= 0
 c13: 6 u_1 - 8 u_2 + 9 u_3 - 10 u_4 - 17 u_5 + 4 u_6 + 2 u_7 - 14 u_8 - 2 u_9
      - 3 u_10 + a_12 >= 0
 c14: - 6 u_1 + 19 u_2 + 18 u_3 + 10 u_4 - 20 u_5 - 20 u_6 - 6 u_7 + 16 u_8
      - 15 u_9 + 16 u_10 + a_13 >= 0
 c15: - 14 u_1 - 11 u_2 - 10 u_3 - 18 u_4 + 13 u_5 - 15 u_6 - 20 u_8 - 5 u_9
      + 9 u_10 + a_14 >= 0
 c16: - u_1 + 10 u_2 - 14 u_3 - 5 u_4 - 9 u_5 + 14 u_6 + 5 u_7 + 17 u_8 + u_9
      + 15 u_10 + a_15 >= 0
 c17: 4 u_1 - 4 u_2 + 5 u_3 - 11 u_4 + 9 u_5 - 13 u_6 + 10 u_7 - 15 u_8
      + 18 u_9 + u_10 + a_16 >= 0
 c18: - 13 u_1 + 14 u_2 + 17 u_3 + 7 u_4 - 14 u_5 + 11 u_6 + 7 u_7 + 10 u_8
      - 2 u_10 + a_17 >= 0
 c19: 20 u_1 - 15 u_2 + 8 u_3 + 3 u_4 - 18 u_5 + 9 u_6 - 10 u_7 - 17 u_8
      - 10 u_9 + 2 u_10 + a_18 >= 0
 c20: - 16 u_1 - 13 u_2 - 5 u_3 - 13 u_4 + 14 u_5 + 14 u_6 - 10 u_7 - 12 u_8
      + 7 u_9 + 11 u_10 + a_19 >= 0
 c21: 3 u_0 + 17 u_1 + 4 u_2 + 5 u_3 + 29 u_4 + u_5 + 13 u_6 + 20 u_7 + 19 u_8
      + 23 u_9 + 29 u_10 - b >= 0
 c22: a_0 - v_1 >= 0
 c23: a_1 - v_2 >= 0
 c24: a_2 - v_3 >= 0
 c25: a_3 - v_4 >= 0
 c26: a_4 - v_5 >= 0
 c27: a_5 - v_6 >= 0
 c28: a_6 - v_7 >= 0
 c29: a_7 - v_8 >= 0
 c30: a_8 - v_0 - v_9 >= 0
 c31: a_9 - v_10 >= 0
 c32: a_10 - 19 v_1 - 6 v_2 - 14 v_3 - 17 v_4 + 10 v_5 - 8 v_6 - 15 v_7
      + 15 v_8 + 2 v_9 - 6 v_10 >= 0
 c33: a_11 + 16 v_1 + 16 v_2 + 10 v_3 + 10 v_4 + 16 v_5 - 11 v_6 + 12 v_7
      - 20 v_8 - 4 v_9 - 6 v_10 >= 0
 c34: a_12 + 6 v_1 - 8 v_2 + 9 v_3 - 10 v_4 - 17 v_5 + 4 v_6 + 2 v_7 - 14 v_8
      - 2 v_9 - 3 v_10 >= 0
 c35: a_13 - 6 v_1 + 19 v_2 + 18 v_3 + 10 v_4 - 20 v_5 - 20 v_6 - 6 v_7
      + 16 v_8 - 15 v_9 + 16 v_10 >= 0
 c36: a_14 - 14 v_1 - 11 v_2 - 10 v_3 - 18 v_4 + 13 v_5 - 15 v_6 - 20 v_8
      - 5 v_9 + 9 v_10 >= 0
 c37: a_15 - v_1 + 10 v_2 - 14 v_3 - 5 v_4 - 9 v_5 + 14 v_6 + 5 v_7 + 17 v_8
      + v_9 + 15 v_10 >= 0
 c38: a_16 + 4 v_1 - 4 v_2 + 5 v_3 - 11 v_4 + 9 v_5 - 13 v_6 + 10 v_7 - 15 v_8
      + 18 v_9 + v_10 >= 0
 c39: a_17 - 13 v_1 + 14 v_2 + 17 v_3 + 7 v_4 - 14 v_5 + 11 v_6 + 7 v_7
      + 10 v_8 - 2 v_10 >= 0
 c40: a_18 + 20 v_1 - 15 v_2 + 8 v_3 + 3 v_4 - 18 v_5 + 9 v_6 - 10 v_7 - 17 v_8
      - 10 v_9 + 2 v_10 >= 0
 c41: a_19 - 16 v_1 - 13 v_2 - 5 v_3 - 13 v_4 + 14 v_5 + 14 v_6 - 10 v_7
      - 12 v_8 + 7 v_9 + 11 v_10 >= 0
 c42: - b + 4 v_0 + 17 v_1 + 4 v_2 + 5 v_3 + 29 v_4 + v_5 + 13 v_6 + 20 v_7
      + 19 v_8 + 23 v_9 + 29 v_10 >= 0
 c43: u_1 + a_0 + 19 a_10 - 16 a_11 - 6 a_12 + 6 a_13 + 14 a_14 + a_15 - 4 a_16
      + 13 a_17 - 20 a_18 + 16 a_19 + 17 b + v_1  = 22153.7328212972
 c44: u_2 + a_1 + 6 a_10 - 16 a_11 + 8 a_12 - 19 a_13 + 11 a_14 - 10 a_15
      + 4 a_16 - 14 a_17 + 15 a_18 + 13 a_19 + 4 b + v_2  = 5518.55765280894
 c45: u_3 + a_2 + 14 a_10 - 10 a_11 - 9 a_12 - 18 a_13 + 10 a_14 + 14 a_15
      - 5 a_16 - 17 a_17 - 8 a_18 + 5 a_19 + 5 b + v_3  = 6468.33292894501
 c46: u_4 + a_3 + 17 a_10 - 10 a_11 + 10 a_12 - 10 a_13 + 18 a_14 + 5 a_15
      + 11 a_16 - 7 a_17 - 3 a_18 + 13 a_19 + 29 b + v_4  = 38626.7305496249
 c47: u_5 + a_4 - 10 a_10 - 16 a_11 + 17 a_12 + 20 a_13 - 13 a_14 + 9 a_15
      - 9 a_16 + 14 a_17 + 18 a_18 - 14 a_19 + b + v_5  = 1400.266585789
 c48: u_6 + a_5 + 8 a_10 + 11 a_11 - 4 a_12 + 20 a_13 + 15 a_14 - 14 a_15
      + 13 a_16 - 11 a_17 - 9 a_18 - 14 a_19 + 13 b + v_6  = 16667.6656719146
 c49: u_7 + a_6 + 15 a_10 - 12 a_11 - 2 a_12 + 6 a_13 - 5 a_15 - 10 a_16
      - 7 a_17 + 10 a_18 + 10 a_19 + 20 b + v_7  = 25582.5193385987
 c50: u_8 + a_7 - 15 a_10 + 20 a_11 + 14 a_12 - 16 a_13 + 20 a_14 - 17 a_15
      + 15 a_16 - 10 a_17 + 17 a_18 + 12 a_19 + 19 b + v_8  = 25873.5873267093
 c51: u_9 + a_8 - 2 a_10 + 4 a_11 + 2 a_12 + 15 a_13 + 5 a_14 - a_15 - 18 a_16
      + 10 a_18 - 7 a_19 + 23 b + v_9  = 29378.8007967113
 c52: u_10 + a_9 + 6 a_10 + 6 a_11 + 3 a_12 - 16 a_13 - 9 a_14 - 15 a_15 - a_16
      + 2 a_17 - 2 a_18 - 11 a_19 + 29 b + v_10  = 36201.730987881
 c53: - u_3 + a_2  = 0
 c54: - u_5 + a_4  = 0
 c55: - u_0 - u_9 + a_8  = 0
 c56: - u_10 + a_9  = 0
 c57: - 19 u_1 - 6 u_2 - 14 u_3 - 17 u_4 + 10 u_5 - 8 u_6 - 15 u_7 + 15 u_8
      + 2 u_9 - 6 u_10 + a_10  = 0
 c58: 16 u_1 + 16 u_2 + 10 u_3 + 10 u_4 + 16 u_5 - 11 u_6 + 12 u_7 - 20 u_8
      - 4 u_9 - 6 u_10 + a_11  = 0
 c59: - 6 u_1 + 19 u_2 + 18 u_3 + 10 u_4 - 20 u_5 - 20 u_6 - 6 u_7 + 16 u_8
      - 15 u_9 + 16 u_10 + a_13  = 0
 c60: - 14 u_1 - 11 u_2 - 10 u_3 - 18 u_4 + 13 u_5 - 15 u_6 - 20 u_8 - 5 u_9
      + 9 u_10 + a_14  = 0
 c61: - u_1 + 10 u_2 - 14 u_3 - 5 u_4 - 9 u_5 + 14 u_6 + 5 u_7 + 17 u_8 + u_9
      + 15 u_10 + a_15  = 0
 c62: - 13 u_1 + 14 u_2 + 17 u_3 + 7 u_4 - 14 u_5 + 11 u_6 + 7 u_7 + 10 u_8
      - 2 u_10 + a_17  = 0
 c63: 20 u_1 - 15 u_2 + 8 u_3 + 3 u_4 - 18 u_5 + 9 u_6 - 10 u_7 - 17 u_8
      - 10 u_9 + 2 u_10 + a_18  = 0
 c64: 3 u_0 + 17 u_1 + 4 u_2 + 5 u_3 + 29 u_4 + u_5 + 13 u_6 + 20 u_7 + 19 u_8
      + 23 u_9 + 29 u_10 - b  = 0
 c65: a_2 - v_3  = 0
 c66: a_4 - v_5  = 0
 c67: a_8 - v_0 - v_9  = 0
 c68: a_9 - v_10  = 0
 c69: a_10 - 19 v_1 - 6 v_2 - 14 v_3 - 17 v_4 + 10 v_5 - 8 v_6 - 15 v_7
      + 15 v_8 + 2 v_9 - 6 v_10  = 0
 c70: a_11 + 16 v_1 + 16 v_2 + 10 v_3 + 10 v_4 + 16 v_5 - 11 v_6 + 12 v_7
      - 20 v_8 - 4 v_9 - 6 v_10  = 0
 c71: a_12 + 6 v_1 - 8 v_2 + 9 v_3 - 10 v_4 - 17 v_5 + 4 v_6 + 2 v_7 - 14 v_8
      - 2 v_9 - 3 v_10  = 0
 c72: a_14 - 14 v_1 - 11 v_2 - 10 v_3 - 18 v_4 + 13 v_5 - 15 v_6 - 20 v_8
      - 5 v_9 + 9 v_10  = 0
 c73: a_15 - v_1 + 10 v_2 - 14 v_3 - 5 v_4 - 9 v_5 + 14 v_6 + 5 v_7 + 17 v_8
      + v_9 + 15 v_10  = 0
 c74: a_17 - 13 v_1 + 14 v_2 + 17 v_3 + 7 v_4 - 14 v_5 + 11 v_6 + 7 v_7
      + 10 v_8 - 2 v_10  = 0
 c75: a_18 + 20 v_1 - 15 v_2 + 8 v_3 + 3 v_4 - 18 v_5 + 9 v_6 - 10 v_7 - 17 v_8
      - 10 v_9 + 2 v_10  = 0
 c76: - b + 4 v_0 + 17 v_1 + 4 v_2 + 5 v_3 + 29 v_4 + v_5 + 13 v_6 + 20 v_7
      + 19 v_8 + 23 v_9 + 29 v_10  = 0
Bounds
 -Inf <= u_0 <= 0
      u_1 Free
      u_2 Free
      u_3 Free
      u_4 Free
      u_5 Free
      u_6 Free
      u_7 Free
      u_8 Free
      u_9 Free
      u_10 Free
      a_0 Free
      a_1 Free
      a_2 Free
      a_3 Free
      a_4 Free
      a_5 Free
      a_6 Free
      a_7 Free
      a_8 Free
      a_9 Free
      a_10 Free
      a_11 Free
      a_12 Free
      a_13 Free
      a_14 Free
      a_15 Free
      a_16 Free
      a_17 Free
      a_18 Free
      a_19 Free
      b Free
      v_1 Free
      v_2 Free
      v_3 Free
      v_4 Free
      v_5 Free
      v_6 Free
      v_7 Free
      v_8 Free
      v_9 Free
      v_10 Free
End
